c description: Random 3-CNF over 14 variables and 28 clauses
p cnf 14 28
-2 5 7 0
-7 8 -11 0
-3 6 -13 0
5 11 -13 0
-2 3 -7 0
-5 -10 11 0
5 6 -11 0
-4 5 -9 0
10 -11 14 0
2 -9 -12 0
-1 -7 10 0
6 -9 14 0
-1 3 11 0
6 7 8 0
-5 8 10 0
-4 -9 11 0
4 -7 -9 0
3 9 -12 0
2 -4 14 0
-7 9 -11 0
1 -13 -14 0
2 -4 5 0
-4 5 -14 0
7 9 10 0
-1 3 13 0
1 4 -8 0
4 6 8 0
8 10 14 0